p cnf 200 1110
-101 56 0
-101 21 0
-101 100 0
-101 -58 0
-101 34 0
-101 60 0
-101 -83 0
-101 26 0
-101 -25 0
-101 -36 0
101 -56 -21 -100 58 -34 -60 83 -26 25 36 0
-102 9 0
-102 -25 0
-102 64 0
-102 19 0
-102 -62 0
-102 -43 0
-102 -68 0
-102 -92 0
-102 21 0
-102 15 0
102 -9 25 -64 -19 62 43 68 92 -21 -15 0
-103 95 0
-103 -37 0
-103 72 0
-103 77 0
-103 28 0
-103 36 0
-103 -54 0
-103 -19 0
-103 -79 0
-103 -1 0
103 -95 37 -72 -77 -28 -36 54 19 79 1 0
-104 27 0
-104 94 0
-104 -55 0
-104 51 0
-104 -79 0
-104 -31 0
-104 74 0
-104 80 0
-104 -36 0
-104 12 0
104 -27 -94 55 -51 79 31 -74 -80 36 -12 0
-105 -17 0
-105 -59 0
-105 -15 0
-105 90 0
-105 94 0
-105 -9 0
-105 88 0
-105 14 0
-105 -6 0
-105 -42 0
105 17 59 15 -90 -94 9 -88 -14 6 42 0
-106 -88 0
-106 -70 0
-106 -69 0
-106 15 0
-106 -60 0
-106 -62 0
-106 -75 0
-106 79 0
-106 57 0
-106 -89 0
106 88 70 69 -15 60 62 75 -79 -57 89 0
-107 79 0
-107 -64 0
-107 90 0
-107 71 0
-107 -85 0
-107 -5 0
-107 -7 0
-107 59 0
-107 61 0
-107 -39 0
107 -79 64 -90 -71 85 5 7 -59 -61 39 0
-108 94 0
-108 40 0
-108 11 0
-108 -26 0
-108 -50 0
-108 89 0
-108 -78 0
-108 -46 0
-108 6 0
-108 -54 0
108 -94 -40 -11 26 50 -89 78 46 -6 54 0
-109 -28 0
-109 48 0
-109 96 0
-109 -34 0
-109 -65 0
-109 16 0
-109 36 0
-109 53 0
-109 -41 0
-109 -74 0
109 28 -48 -96 34 65 -16 -36 -53 41 74 0
-110 80 0
-110 -45 0
-110 -89 0
-110 3 0
-110 83 0
-110 62 0
-110 78 0
-110 -95 0
-110 -79 0
-110 40 0
110 -80 45 89 -3 -83 -62 -78 95 79 -40 0
101 102 103 104 105 106 107 108 109 110 0
-111 10 0
-111 -84 0
-111 -47 0
-111 -25 0
-111 -52 0
-111 -96 0
-111 -68 0
-111 -63 0
-111 32 0
-111 4 0
111 -10 84 47 25 52 96 68 63 -32 -4 0
-112 -99 0
-112 -21 0
-112 -28 0
-112 66 0
-112 -90 0
-112 82 0
-112 54 0
-112 17 0
-112 32 0
-112 -89 0
112 99 21 28 -66 90 -82 -54 -17 -32 89 0
-113 12 0
-113 -27 0
-113 -16 0
-113 -14 0
-113 -68 0
-113 11 0
-113 5 0
-113 47 0
-113 66 0
-113 -26 0
113 -12 27 16 14 68 -11 -5 -47 -66 26 0
-114 65 0
-114 -17 0
-114 51 0
-114 43 0
-114 -92 0
-114 -14 0
-114 50 0
-114 97 0
-114 -28 0
-114 81 0
114 -65 17 -51 -43 92 14 -50 -97 28 -81 0
-115 50 0
-115 -9 0
-115 -96 0
-115 -7 0
-115 17 0
-115 -90 0
-115 82 0
-115 -81 0
-115 -64 0
-115 -2 0
115 -50 9 96 7 -17 90 -82 81 64 2 0
-116 91 0
-116 57 0
-116 -41 0
-116 -96 0
-116 4 0
-116 20 0
-116 63 0
-116 62 0
-116 56 0
-116 -71 0
116 -91 -57 41 96 -4 -20 -63 -62 -56 71 0
-117 -90 0
-117 34 0
-117 86 0
-117 -72 0
-117 -10 0
-117 70 0
-117 33 0
-117 -36 0
-117 -19 0
-117 -65 0
117 90 -34 -86 72 10 -70 -33 36 19 65 0
-118 -84 0
-118 36 0
-118 87 0
-118 94 0
-118 -73 0
-118 -49 0
-118 4 0
-118 33 0
-118 40 0
-118 -58 0
118 84 -36 -87 -94 73 49 -4 -33 -40 58 0
-119 69 0
-119 43 0
-119 63 0
-119 54 0
-119 -29 0
-119 -52 0
-119 28 0
-119 81 0
-119 -65 0
-119 -36 0
119 -69 -43 -63 -54 29 52 -28 -81 65 36 0
-120 -60 0
-120 -89 0
-120 29 0
-120 -49 0
-120 75 0
-120 90 0
-120 56 0
-120 -9 0
-120 -91 0
-120 100 0
120 60 89 -29 49 -75 -90 -56 9 91 -100 0
111 112 113 114 115 116 117 118 119 120 0
-121 32 0
-121 -71 0
-121 36 0
-121 80 0
-121 60 0
-121 12 0
-121 -8 0
-121 -59 0
-121 30 0
-121 -49 0
121 -32 71 -36 -80 -60 -12 8 59 -30 49 0
-122 -3 0
-122 59 0
-122 6 0
-122 -63 0
-122 14 0
-122 -51 0
-122 2 0
-122 93 0
-122 -77 0
-122 -74 0
122 3 -59 -6 63 -14 51 -2 -93 77 74 0
-123 19 0
-123 -69 0
-123 -57 0
-123 3 0
-123 85 0
-123 22 0
-123 6 0
-123 -83 0
-123 -12 0
-123 37 0
123 -19 69 57 -3 -85 -22 -6 83 12 -37 0
-124 -19 0
-124 -35 0
-124 -22 0
-124 -34 0
-124 51 0
-124 -65 0
-124 -58 0
-124 -62 0
-124 -67 0
-124 -78 0
124 19 35 22 34 -51 65 58 62 67 78 0
-125 29 0
-125 60 0
-125 -1 0
-125 -2 0
-125 -40 0
-125 61 0
-125 -28 0
-125 77 0
-125 -86 0
-125 14 0
125 -29 -60 1 2 40 -61 28 -77 86 -14 0
-126 -22 0
-126 13 0
-126 -40 0
-126 -34 0
-126 -28 0
-126 87 0
-126 -57 0
-126 -82 0
-126 -70 0
-126 -9 0
126 22 -13 40 34 28 -87 57 82 70 9 0
-127 53 0
-127 31 0
-127 58 0
-127 -30 0
-127 -12 0
-127 -48 0
-127 35 0
-127 -3 0
-127 -70 0
-127 -7 0
127 -53 -31 -58 30 12 48 -35 3 70 7 0
-128 39 0
-128 34 0
-128 6 0
-128 50 0
-128 -83 0
-128 19 0
-128 -64 0
-128 -51 0
-128 -35 0
-128 -37 0
128 -39 -34 -6 -50 83 -19 64 51 35 37 0
-129 29 0
-129 22 0
-129 17 0
-129 -3 0
-129 67 0
-129 7 0
-129 -72 0
-129 44 0
-129 23 0
-129 -91 0
129 -29 -22 -17 3 -67 -7 72 -44 -23 91 0
-130 -75 0
-130 -13 0
-130 37 0
-130 57 0
-130 -1 0
-130 -83 0
-130 -40 0
-130 -34 0
-130 -35 0
-130 -27 0
130 75 13 -37 -57 1 83 40 34 35 27 0
121 122 123 124 125 126 127 128 129 130 0
-131 -61 0
-131 -98 0
-131 28 0
-131 -37 0
-131 -43 0
-131 11 0
-131 -31 0
-131 60 0
-131 53 0
-131 13 0
131 61 98 -28 37 43 -11 31 -60 -53 -13 0
-132 64 0
-132 -83 0
-132 -84 0
-132 -3 0
-132 34 0
-132 41 0
-132 -35 0
-132 67 0
-132 47 0
-132 -36 0
132 -64 83 84 3 -34 -41 35 -67 -47 36 0
-133 44 0
-133 83 0
-133 4 0
-133 -34 0
-133 84 0
-133 -49 0
-133 53 0
-133 97 0
-133 5 0
-133 9 0
133 -44 -83 -4 34 -84 49 -53 -97 -5 -9 0
-134 27 0
-134 -52 0
-134 -45 0
-134 -75 0
-134 -100 0
-134 86 0
-134 78 0
-134 -39 0
-134 -24 0
-134 -44 0
134 -27 52 45 75 100 -86 -78 39 24 44 0
-135 -61 0
-135 -71 0
-135 -99 0
-135 11 0
-135 -41 0
-135 37 0
-135 26 0
-135 -97 0
-135 74 0
-135 31 0
135 61 71 99 -11 41 -37 -26 97 -74 -31 0
-136 -36 0
-136 -42 0
-136 -44 0
-136 -5 0
-136 -38 0
-136 -9 0
-136 35 0
-136 19 0
-136 -33 0
-136 -66 0
136 36 42 44 5 38 9 -35 -19 33 66 0
-137 -63 0
-137 65 0
-137 -2 0
-137 23 0
-137 19 0
-137 72 0
-137 25 0
-137 -77 0
-137 -3 0
-137 27 0
137 63 -65 2 -23 -19 -72 -25 77 3 -27 0
-138 -97 0
-138 1 0
-138 99 0
-138 12 0
-138 -15 0
-138 -25 0
-138 -71 0
-138 95 0
-138 -96 0
-138 82 0
138 97 -1 -99 -12 15 25 71 -95 96 -82 0
-139 83 0
-139 20 0
-139 45 0
-139 -70 0
-139 -2 0
-139 -18 0
-139 -50 0
-139 5 0
-139 -73 0
-139 -76 0
139 -83 -20 -45 70 2 18 50 -5 73 76 0
-140 -9 0
-140 81 0
-140 7 0
-140 24 0
-140 66 0
-140 -39 0
-140 99 0
-140 -32 0
-140 46 0
-140 17 0
140 9 -81 -7 -24 -66 39 -99 32 -46 -17 0
131 132 133 134 135 136 137 138 139 140 0
-141 47 0
-141 -57 0
-141 50 0
-141 41 0
-141 63 0
-141 71 0
-141 -95 0
-141 -62 0
-141 18 0
-141 -90 0
141 -47 57 -50 -41 -63 -71 95 62 -18 90 0
-142 20 0
-142 16 0
-142 -31 0
-142 -35 0
-142 49 0
-142 19 0
-142 74 0
-142 89 0
-142 75 0
-142 23 0
142 -20 -16 31 35 -49 -19 -74 -89 -75 -23 0
-143 87 0
-143 -78 0
-143 39 0
-143 -54 0
-143 66 0
-143 -13 0
-143 86 0
-143 12 0
-143 42 0
-143 -91 0
143 -87 78 -39 54 -66 13 -86 -12 -42 91 0
-144 -89 0
-144 -16 0
-144 -100 0
-144 -20 0
-144 -84 0
-144 -26 0
-144 35 0
-144 1 0
-144 25 0
-144 -37 0
144 89 16 100 20 84 26 -35 -1 -25 37 0
-145 58 0
-145 -65 0
-145 75 0
-145 52 0
-145 23 0
-145 -89 0
-145 29 0
-145 50 0
-145 -96 0
-145 -26 0
145 -58 65 -75 -52 -23 89 -29 -50 96 26 0
-146 -66 0
-146 75 0
-146 82 0
-146 -11 0
-146 21 0
-146 -46 0
-146 32 0
-146 -54 0
-146 8 0
-146 42 0
146 66 -75 -82 11 -21 46 -32 54 -8 -42 0
-147 -18 0
-147 -9 0
-147 -74 0
-147 -55 0
-147 51 0
-147 75 0
-147 -90 0
-147 65 0
-147 69 0
-147 34 0
147 18 9 74 55 -51 -75 90 -65 -69 -34 0
-148 -55 0
-148 61 0
-148 46 0
-148 91 0
-148 100 0
-148 -73 0
-148 -74 0
-148 -68 0
-148 -66 0
-148 70 0
148 55 -61 -46 -91 -100 73 74 68 66 -70 0
-149 -73 0
-149 -26 0
-149 7 0
-149 -20 0
-149 -48 0
-149 65 0
-149 59 0
-149 -95 0
-149 -49 0
-149 18 0
149 73 26 -7 20 48 -65 -59 95 49 -18 0
-150 -99 0
-150 34 0
-150 -52 0
-150 -88 0
-150 -15 0
-150 -44 0
-150 -50 0
-150 9 0
-150 -1 0
-150 -69 0
150 99 -34 52 88 15 44 50 -9 1 69 0
141 142 143 144 145 146 147 148 149 150 0
-151 -55 0
-151 -35 0
-151 -1 0
-151 72 0
-151 -31 0
-151 -43 0
-151 13 0
-151 -9 0
-151 64 0
-151 -27 0
151 55 35 1 -72 31 43 -13 9 -64 27 0
-152 41 0
-152 60 0
-152 -10 0
-152 80 0
-152 64 0
-152 -16 0
-152 17 0
-152 65 0
-152 24 0
-152 89 0
152 -41 -60 10 -80 -64 16 -17 -65 -24 -89 0
-153 88 0
-153 73 0
-153 -46 0
-153 69 0
-153 -31 0
-153 -60 0
-153 18 0
-153 -12 0
-153 67 0
-153 83 0
153 -88 -73 46 -69 31 60 -18 12 -67 -83 0
-154 -13 0
-154 -46 0
-154 -98 0
-154 43 0
-154 25 0
-154 -24 0
-154 -41 0
-154 -87 0
-154 29 0
-154 -32 0
154 13 46 98 -43 -25 24 41 87 -29 32 0
-155 -100 0
-155 64 0
-155 31 0
-155 92 0
-155 10 0
-155 -58 0
-155 -88 0
-155 20 0
-155 -75 0
-155 29 0
155 100 -64 -31 -92 -10 58 88 -20 75 -29 0
-156 -72 0
-156 46 0
-156 3 0
-156 -90 0
-156 -16 0
-156 -79 0
-156 18 0
-156 -77 0
-156 9 0
-156 29 0
156 72 -46 -3 90 16 79 -18 77 -9 -29 0
-157 60 0
-157 -67 0
-157 -68 0
-157 88 0
-157 28 0
-157 83 0
-157 5 0
-157 7 0
-157 -2 0
-157 -46 0
157 -60 67 68 -88 -28 -83 -5 -7 2 46 0
-158 -78 0
-158 85 0
-158 -50 0
-158 13 0
-158 55 0
-158 -58 0
-158 -12 0
-158 99 0
-158 37 0
-158 -77 0
158 78 -85 50 -13 -55 58 12 -99 -37 77 0
-159 72 0
-159 73 0
-159 -49 0
-159 69 0
-159 -29 0
-159 -27 0
-159 11 0
-159 -87 0
-159 -40 0
-159 38 0
159 -72 -73 49 -69 29 27 -11 87 40 -38 0
-160 -49 0
-160 47 0
-160 -3 0
-160 70 0
-160 87 0
-160 20 0
-160 8 0
-160 15 0
-160 -22 0
-160 23 0
160 49 -47 3 -70 -87 -20 -8 -15 22 -23 0
151 152 153 154 155 156 157 158 159 160 0
-161 -58 0
-161 -59 0
-161 -76 0
-161 41 0
-161 20 0
-161 -51 0
-161 -97 0
-161 -26 0
-161 -79 0
-161 -63 0
161 58 59 76 -41 -20 51 97 26 79 63 0
-162 64 0
-162 -19 0
-162 -61 0
-162 -98 0
-162 -9 0
-162 50 0
-162 12 0
-162 -4 0
-162 -6 0
-162 51 0
162 -64 19 61 98 9 -50 -12 4 6 -51 0
-163 34 0
-163 47 0
-163 81 0
-163 -90 0
-163 4 0
-163 1 0
-163 -91 0
-163 -46 0
-163 -68 0
-163 29 0
163 -34 -47 -81 90 -4 -1 91 46 68 -29 0
-164 -4 0
-164 -53 0
-164 85 0
-164 -13 0
-164 -90 0
-164 -64 0
-164 71 0
-164 -18 0
-164 80 0
-164 -41 0
164 4 53 -85 13 90 64 -71 18 -80 41 0
-165 -81 0
-165 -73 0
-165 -69 0
-165 -48 0
-165 -77 0
-165 98 0
-165 -28 0
-165 72 0
-165 92 0
-165 -56 0
165 81 73 69 48 77 -98 28 -72 -92 56 0
-166 46 0
-166 -5 0
-166 40 0
-166 -53 0
-166 -26 0
-166 -58 0
-166 4 0
-166 -49 0
-166 69 0
-166 6 0
166 -46 5 -40 53 26 58 -4 49 -69 -6 0
-167 -67 0
-167 28 0
-167 -84 0
-167 16 0
-167 50 0
-167 -78 0
-167 100 0
-167 -20 0
-167 69 0
-167 32 0
167 67 -28 84 -16 -50 78 -100 20 -69 -32 0
-168 -73 0
-168 -85 0
-168 22 0
-168 78 0
-168 33 0
-168 -87 0
-168 3 0
-168 -1 0
-168 -88 0
-168 -72 0
168 73 85 -22 -78 -33 87 -3 1 88 72 0
-169 -79 0
-169 -63 0
-169 -27 0
-169 45 0
-169 -41 0
-169 59 0
-169 -18 0
-169 23 0
-169 90 0
-169 64 0
169 79 63 27 -45 41 -59 18 -23 -90 -64 0
-170 -85 0
-170 24 0
-170 -53 0
-170 3 0
-170 -72 0
-170 17 0
-170 74 0
-170 87 0
-170 20 0
-170 23 0
170 85 -24 53 -3 72 -17 -74 -87 -20 -23 0
161 162 163 164 165 166 167 168 169 170 0
-171 78 0
-171 85 0
-171 74 0
-171 -21 0
-171 -65 0
-171 -53 0
-171 -90 0
-171 -64 0
-171 23 0
-171 44 0
171 -78 -85 -74 21 65 53 90 64 -23 -44 0
-172 4 0
-172 99 0
-172 54 0
-172 37 0
-172 15 0
-172 28 0
-172 17 0
-172 73 0
-172 6 0
-172 -44 0
172 -4 -99 -54 -37 -15 -28 -17 -73 -6 44 0
-173 2 0
-173 100 0
-173 -27 0
-173 -64 0
-173 -85 0
-173 62 0
-173 -68 0
-173 39 0
-173 45 0
-173 -84 0
173 -2 -100 27 64 85 -62 68 -39 -45 84 0
-174 -51 0
-174 -20 0
-174 92 0
-174 -54 0
-174 -27 0
-174 -25 0
-174 8 0
-174 19 0
-174 -14 0
-174 88 0
174 51 20 -92 54 27 25 -8 -19 14 -88 0
-175 -97 0
-175 -50 0
-175 57 0
-175 51 0
-175 -15 0
-175 -41 0
-175 99 0
-175 61 0
-175 -42 0
-175 78 0
175 97 50 -57 -51 15 41 -99 -61 42 -78 0
-176 -95 0
-176 -41 0
-176 -86 0
-176 -36 0
-176 -33 0
-176 -68 0
-176 11 0
-176 -96 0
-176 -61 0
-176 3 0
176 95 41 86 36 33 68 -11 96 61 -3 0
-177 -63 0
-177 -6 0
-177 1 0
-177 -4 0
-177 -20 0
-177 -38 0
-177 -34 0
-177 75 0
-177 61 0
-177 -53 0
177 63 6 -1 4 20 38 34 -75 -61 53 0
-178 -15 0
-178 19 0
-178 98 0
-178 40 0
-178 -58 0
-178 12 0
-178 38 0
-178 77 0
-178 92 0
-178 -16 0
178 15 -19 -98 -40 58 -12 -38 -77 -92 16 0
-179 -38 0
-179 -6 0
-179 -78 0
-179 -60 0
-179 17 0
-179 23 0
-179 -88 0
-179 93 0
-179 83 0
-179 81 0
179 38 6 78 60 -17 -23 88 -93 -83 -81 0
-180 67 0
-180 -29 0
-180 84 0
-180 -95 0
-180 -32 0
-180 65 0
-180 64 0
-180 -94 0
-180 -68 0
-180 -15 0
180 -67 29 -84 95 32 -65 -64 94 68 15 0
171 172 173 174 175 176 177 178 179 180 0
-181 -78 0
-181 23 0
-181 -57 0
-181 -8 0
-181 -90 0
-181 -27 0
-181 44 0
-181 -45 0
-181 -47 0
-181 -97 0
181 78 -23 57 8 90 27 -44 45 47 97 0
-182 -31 0
-182 -53 0
-182 -41 0
-182 -19 0
-182 -17 0
-182 -6 0
-182 -87 0
-182 20 0
-182 93 0
-182 68 0
182 31 53 41 19 17 6 87 -20 -93 -68 0
-183 26 0
-183 -47 0
-183 33 0
-183 64 0
-183 -97 0
-183 76 0
-183 37 0
-183 54 0
-183 -83 0
-183 8 0
183 -26 47 -33 -64 97 -76 -37 -54 83 -8 0
-184 10 0
-184 -52 0
-184 66 0
-184 -23 0
-184 -2 0
-184 5 0
-184 -76 0
-184 50 0
-184 -39 0
-184 51 0
184 -10 52 -66 23 2 -5 76 -50 39 -51 0
-185 50 0
-185 -48 0
-185 29 0
-185 34 0
-185 -58 0
-185 -46 0
-185 -31 0
-185 -82 0
-185 47 0
-185 68 0
185 -50 48 -29 -34 58 46 31 82 -47 -68 0
-186 -6 0
-186 29 0
-186 -41 0
-186 -55 0
-186 -67 0
-186 40 0
-186 35 0
-186 19 0
-186 -11 0
-186 1 0
186 6 -29 41 55 67 -40 -35 -19 11 -1 0
-187 42 0
-187 -80 0
-187 94 0
-187 -19 0
-187 9 0
-187 -27 0
-187 87 0
-187 34 0
-187 -93 0
-187 -32 0
187 -42 80 -94 19 -9 27 -87 -34 93 32 0
-188 -92 0
-188 -62 0
-188 -23 0
-188 -91 0
-188 -11 0
-188 -13 0
-188 63 0
-188 -52 0
-188 -77 0
-188 60 0
188 92 62 23 91 11 13 -63 52 77 -60 0
-189 -37 0
-189 -36 0
-189 -11 0
-189 84 0
-189 -35 0
-189 99 0
-189 85 0
-189 -6 0
-189 71 0
-189 46 0
189 37 36 11 -84 35 -99 -85 6 -71 -46 0
-190 57 0
-190 49 0
-190 28 0
-190 44 0
-190 -47 0
-190 20 0
-190 22 0
-190 23 0
-190 48 0
-190 98 0
190 -57 -49 -28 -44 47 -20 -22 -23 -48 -98 0
181 182 183 184 185 186 187 188 189 190 0
-191 7 0
-191 -76 0
-191 88 0
-191 1 0
-191 71 0
-191 6 0
-191 33 0
-191 -38 0
-191 49 0
-191 -59 0
191 -7 76 -88 -1 -71 -6 -33 38 -49 59 0
-192 60 0
-192 71 0
-192 -53 0
-192 -25 0
-192 18 0
-192 91 0
-192 78 0
-192 -75 0
-192 12 0
-192 9 0
192 -60 -71 53 25 -18 -91 -78 75 -12 -9 0
-193 -40 0
-193 -28 0
-193 2 0
-193 21 0
-193 52 0
-193 -85 0
-193 -25 0
-193 29 0
-193 -13 0
-193 93 0
193 40 28 -2 -21 -52 85 25 -29 13 -93 0
-194 15 0
-194 46 0
-194 -19 0
-194 33 0
-194 80 0
-194 -50 0
-194 -69 0
-194 -58 0
-194 44 0
-194 -41 0
194 -15 -46 19 -33 -80 50 69 58 -44 41 0
-195 83 0
-195 55 0
-195 -17 0
-195 70 0
-195 -10 0
-195 -81 0
-195 31 0
-195 -60 0
-195 45 0
-195 -25 0
195 -83 -55 17 -70 10 81 -31 60 -45 25 0
-196 24 0
-196 -67 0
-196 -15 0
-196 90 0
-196 -31 0
-196 -47 0
-196 26 0
-196 -49 0
-196 -2 0
-196 -77 0
196 -24 67 15 -90 31 47 -26 49 2 77 0
-197 -99 0
-197 -42 0
-197 90 0
-197 -58 0
-197 49 0
-197 -47 0
-197 -12 0
-197 93 0
-197 69 0
-197 -81 0
197 99 42 -90 58 -49 47 12 -93 -69 81 0
-198 79 0
-198 6 0
-198 72 0
-198 11 0
-198 -90 0
-198 -26 0
-198 -98 0
-198 -89 0
-198 49 0
-198 -59 0
198 -79 -6 -72 -11 90 26 98 89 -49 59 0
-199 10 0
-199 -90 0
-199 -100 0
-199 -55 0
-199 -93 0
-199 -35 0
-199 -81 0
-199 70 0
-199 30 0
-199 -9 0
199 -10 90 100 55 93 35 81 -70 -30 9 0
-200 -12 0
-200 -14 0
-200 -8 0
-200 -100 0
-200 66 0
-200 -16 0
-200 77 0
-200 -67 0
-200 45 0
-200 -62 0
200 12 14 8 100 -66 16 -77 67 -45 62 0
191 192 193 194 195 196 197 198 199 200 0
